nr_shelves = 30;
shelves = [15, 7, 7];

Product = P(1..2);

product_size = 
[|       Length: Width: Height: 
 | P(1):      8,     2,      3
 | P(2):      7,     3,      7
 |];

nr_products = [35, 40];
